-99 -99 000 000 -99 -99 000 000 000 000 000 000 000 000 -99 -99 -99 -99 000 000 000 -99 -99 -99 000 000 000 000 -99 -99 000
000 -99 000 000 000 000 000 000 000 003 000 000 000 000 -99 -99 -99 -99 -99 000 000 -99 000 -99 -99 000 000 -99 -99 -99 000
000 -99 000 000 000 000 000 000 000 000 000 000 000 -99 -99 -99 -99 -99 -99 -99 -99 -99 000 000 -99 000 000 000 000 -99 -99
000 -99 000 000 000 000 000 000 000 000 000 000 000 -99 000 000 -99 -99 -99 -99 -99 -99 000 000 000 000 000 000 000 -99 -99
000 000 000 000 000 000 000 000 000 000 -99 000 000 000 -99 000 000 -99 -99 -99 000 000 000 000 000 000 000 000 -99 -99 -99
000 000 000 000 000 000 000 000 000 000 -99 -99 000 000 000 000 000 -99 -99 -99 000 000 000 000 000 000 -99 000 -99 -99 -99
000 000 000 000 000 000 000 000 000 -99 -99 -99 000 000 000 000 000 000 -99 -99 000 000 000 000 000 000 -99 -99 -99 -99 000
000 000 000 000 000 000 000 000 000 000 -99 -99 000 000 -99 000 000 000 -99 -99 000 000 000 000 000 000 -99 -99 -99 000 000
000 000 000 000 000 000 000 000 000 000 000 000 -99 -99 -99 -99 000 000 -99 -99 000 000 000 000 000 000 000 -99 -99 000 000
000 000 000 000 000 000 000 -99 000 000 000 000 -99 -99 -99 -99 000 000 000 000 000 000 -99 -99 000 000 000 000 -99 000 000
000 000 000 000 000 000 -99 000 000 000 000 000 -99 -99 -99 -99 000 000 000 000 000 000 -99 -99 -99 000 000 000 000 000 000
000 000 000 000 000 000 000 000 000 000 000 000 000 -99 -99 -99 000 -99 000 000 000 -99 -99 000 000 000 000 000 000 000 000
000 000 000 000 000 000 000 000 000 000 000 000 000 -99 -99 -99 000 000 000 000 -99 -99 -99 000 000 000 000 000 000 000 000
000 000 000 000 000 000 000 000 000 -99 000 000 000 -99 -99 -99 -99 000 -99 -99 -99 -99 000 000 000 000 000 000 000 000 000
000 -99 000 -99 000 000 000 000 000 -99 -99 -99 -99 000 -99 -99 -99 -99 -99 -99 -99 -99 000 000 000 000 000 000 000 000 000
000 -99 000 000 000 000 000 000 000 -99 -99 -99 -99 000 -99 -99 -99 -99 -99 -99 -99 000 -99 -99 000 000 000 000 000 000 002
000 -99 -99 -99 000 000 000 000 000 -99 -99 -99 -99 000 000 -99 000 000 -99 -99 -99 -99 000 -99 000 000 000 000 000 000 003
000 000 000 -99 -99 -99 000 000 000 -99 -99 -99 -99 000 000 -99 000 000 -99 -99 -99 000 000 -99 -99 000 -99 -99 000 000 009
000 000 000 -99 -99 -99 -99 000 000 -99 -99 000 -99 -99 -99 000 000 000 000 -99 -99 000 000 -99 -99 -99 -99 -99 000 001 026
000 000 000 000 000 -99 000 000 000 000 000 000 -99 -99 -99 000 000 000 000 -99 -99 000 -99 -99 -99 -99 -99 -99 000 000 024
000 000 000 000 000 000 000 000 000 000 -99 -99 -99 -99 -99 000 000 000 000 -99 000 000 000 -99 -99 -99 -99 -99 -99 000 006
000 000 000 000 000 000 000 000 000 000 -99 -99 -99 -99 -99 000 000 000 000 000 000 000 000 -99 -99 -99 -99 -99 -99 000 006
000 000 000 000 000 000 000 000 000 -99 -99 -99 -99 -99 -99 000 000 000 000 000 000 000 000 -99 -99 -99 -99 -99 -99 -99 -99
000 000 000 000 000 000 000 000 000 -99 -99 -99 -99 -99 000 000 000 000 000 000 000 000 000 -99 -99 -99 -99 -99 -99 -99 000
000 000 000 000 000 000 000 000 000 -99 -99 -99 -99 -99 000 000 000 000 000 000 -99 -99 -99 -99 -99 -99 -99 -99 -99 -99 000
-99 -99 000 000 000 000 000 000 000 -99 -99 -99 -99 -99 000 000 000 000 000 000 -99 -99 -99 -99 -99 -99 -99 -99 -99 -99 000
000 -99 -99 000 000 000 000 000 000 -99 -99 -99 -99 -99 000 000 -99 000 -99 -99 -99 -99 -99 -99 -99 -99 -99 -99 -99 -99 000
000 -99 -99 000 000 000 000 000 000 -99 -99 -99 -99 -99 000 000 000 000 -99 -99 -99 000 -99 -99 -99 -99 002 002 001 -99 000
000 000 000 -99 000 000 000 000 000 -99 -99 -99 -99 -99 000 000 000 000 000 -99 000 000 -99 -99 -99 003 003 001 002 006 000
000 000 000 000 000 000 000 000 000 000 -99 -99 -99 000 000 000 000 000 000 000 000 000 -99 -99 000 003 003 001 002 008 -99
000 000 000 000 000 000 000 000 000 000 -99 -99 -99 000 000 000 000 000 000 000 -99 000 -99 000 000 001 002 001 002 012 -99
000 000 000 000 000 000 000 000 000 -99 -99 -99 -99 000 000 -99 000 000 000 -99 -99 000 000 000 000 000 000 000 001 002 001
-99 000 000 000 000 000 000 000 000 -99 -99 -99 -99 000 000 -99 000 000 000 -99 -99 -99 000 000 000 000 000 -99 000 000 000
-99 000 000 000 000 000 000 -99 -99 -99 -99 -99 -99 000 000 000 000 000 000 -99 000 000 000 000 000 000 000 000 000 000 000
-99 -99 000 000 000 000 000 000 000 -99 -99 -99 -99 000 000 000 000 000 -99 000 000 000 000 000 000 000 000 000 000 000 000
000 000 -99 000 000 -99 -99 000 000 000 -99 -99 000 000 000 000 000 000 000 000 000 -99 000 000 000 000 000 000 000 000 000
000 000 -99 -99 000 -99 -99 000 000 000 -99 -99 000 000 000 000 000 000 000 000 000 -99 000 000 000 000 000 000 000 000 000
000 000 -99 000 000 -99 -99 000 000 000 -99 -99 -99 000 000 000 000 000 000 000 000 -99 000 000 000 000 000 -99 000 000 000
000 000 000 000 000 -99 000 000 -99 000 -99 -99 -99 000 000 000 000 000 000 -99 000 -99 000 000 000 000 000 -99 -99 -99 -99
000 000 000 000 000 -99 000 000 -99 -99 -99 -99 000 000 000 000 000 000 -99 -99 -99 -99 000 000 000 000 -99 -99 -99 -99 -99
000 000 000 000 000 -99 -99 -99 -99 -99 -99 000 000 000 000 000 000 -99 -99 -99 -99 -99 -99 000 -99 000 -99 -99 -99 -99 -99
000 000 -99 000 -99 -99 -99 -99 -99 -99 000 000 000 000 -99 000 000 000 -99 -99 -99 -99 -99 000 000 -99 -99 -99 -99 -99 -99
-99 -99 -99 -99 -99 -99 -99 -99 -99 -99 -99 000 000 -99 -99 000 000 000 000 000 000 -99 -99 000 000 -99 -99 -99 -99 -99 -99
-99 -99 -99 -99 -99 -99 -99 -99 -99 -99 -99 000 000 -99 000 000 000 000 -99 -99 000 -99 -99 -99 000 -99 -99 000 000 -99 -99
-99 -99 -99 -99 -99 -99 -99 -99 -99 -99 -99 000 000 000 000 000 000 000 000 -99 000 -99 -99 -99 -99 -99 -99 000 000 -99 -99
-99 -99 -99 -99 -99 -99 -99 -99 -99 -99 -99 000 000 000 000 000 000 000 000 -99 -99 -99 -99 -99 -99 000 000 000 000 -99 -99
-99 -99 -99 -99 -99 -99 -99 -99 -99 -99 -99 000 000 000 000 000 000 000 000 -99 -99 -99 000 -99 -99 000 000 000 -99 -99 -99
-99 -99 -99 -99 -99 -99 -99 -99 -99 -99 -99 -99 -99 000 000 000 -99 000 000 -99 -99 -99 000 -99 -99 -99 000 000 -99 -99 -99
-99 -99 -99 -99 -99 -99 -99 -99 -99 -99 -99 -99 -99 -99 -99 -99 -99 000 000 -99 -99 -99 000 -99 -99 000 000 000 -99 -99 -99
-99 -99 -99 -99 -99 -99 -99 -99 -99 -99 -99 -99 -99 -99 -99 -99 000 000 000 -99 -99 000 -99 -99 -99 000 000 -99 -99 -99 -99
-99 -99 -99 -99 -99 -99 -99 -99 -99 -99 -99 -99 -99 -99 -99 -99 000 000 -99 -99 -99 -99 -99 -99 -99 -99 -99 -99 -99 -99 -99
-99 -99 -99 -99 -99 -99 -99 -99 -99 -99 -99 -99 -99 -99 -99 -99 -99 000 -99 -99 -99 -99 -99 -99 -99 -99 -99 -99 -99 -99 -99
-99 -99 -99 -99 -99 -99 -99 -99 -99 -99 -99 -99 -99 -99 -99 -99 -99 -99 -99 -99 -99 -99 -99 -99 -99 -99 -99 -99 -99 -99 -99
-99 -99 -99 -99 -99 -99 -99 -99 -99 -99 -99 -99 -99 -99 -99 -99 -99 -99 -99 -99 -99 -99 -99 -99 -99 -99 -99 -99 -99 -99 -99
-99 -99 -99 -99 -99 -99 -99 -99 -99 -99 -99 -99 -99 -99 -99 -99 -99 -99 -99 -99 -99 -99 -99 -99 -99 -99 -99 -99 -99 -99 -99
